(set-option :print-success false)
(set-logic QF_UF)
(declare-sort x98 0)
(declare-sort x11 0)
(declare-fun x104 () x11)
(declare-fun x122 () x11)
(declare-fun x141 () x11)
(declare-fun x9 () x11)
(declare-fun x115 (x11 x11) x11)
(declare-fun x75 (x11 x11) x11)
(declare-fun x43 () x11)
(assert (let ((x128 (x75 x122 x43)) (x80 (x75 x141 x104)) (x4 (x75 x104 x141)) (x27 (x75 x141 x43)) (x41 (x75 x43 x104)) (x65 (x75 x104 x104)) (x151 (x75 x122 x9)) (x91 (x75 x141 x122)) (x64 (x75 x141 x141)) (x25 (x75 x104 x122)) (x79 (x75 x122 x122)) (x55 (x75 x141 x9)) (x14 (x75 x9 x122)) (x18 (x75 x43 x43)) (x72 (x75 x122 x141)) (x77 (x75 x104 x43)) (x35 (x75 x43 x9)) (x61 (x75 x9 x9)) (x137 (x75 x43 x141)) (x53 (x75 x122 x104)) (x136 (x75 x9 x104)) (x66 (x75 x9 x43)) (x29 (x75 x9 x141)) (x88 (x75 x43 x122)) (x31 (x75 x104 x9))) (let ((x60 (not (= x141 x80))) (x19 (not (= x35 x43))) (x97 (not (= x122 x151))) (x111 (not (= x122 x72))) (x144 (not (= x53 x122))) (x84 (not (= x104 x65))) (x67 (not (= x137 x43))) (x138 (not (= x31 x104))) (x50 (not (= x77 x104))) (x153 (not (= x41 x43))) (x108 (not (= x55 x141))) (x140 (not (= x18 x43))) (x95 (not (= x25 x104))) (x118 (not (= x141 x64))) (x48 (not (= x27 x141))) (x85 (not (= x9 x29))) (x26 (not (= x9 x66))) (x126 (not (= x4 x104))) (x40 (not (= x14 x9))) (x24 (not (= x88 x43))) (x15 (not (= x136 x9))) (x152 (not (= x9 x61))) (x107 (not (= x122 x128))) (x6 (not (= x79 x122))) (x21 (not (= x91 x141)))) (or (or (and (and (and (and (or x21 (not (= x72 x9))) (and (and (or (not (= x9 x79)) x6) (and (or x24 (not (= x128 x9))) (or x95 (not (= x9 x53))))) (or x40 (not (= x9 x151))))) (and (and (and (or x15 (not (= x31 x9))) (and (and (or x84 (not (= x9 x65))) (or (not (= x77 x9)) x153)) (or x144 (not (= x25 x9))))) (or (not (= x4 x9)) x60)) (and (or (not (= x137 x9)) x48) (and (and (or (not (= x9 x88)) x107) (and (or (not (= x9 x18)) x140) (or x50 (not (= x41 x9))))) (or (not (= x9 x35)) x26))))) (and (and (and (and (or x26 x19) (or x15 x138)) (or x40 x97)) (or x152 x152)) (or x85 x108))) (and (or x118 (not (= x9 x64))) (and (and (or x111 (not (= x9 x91))) (and (or (not (= x80 x9)) x126) (or x67 (not (= x9 x27))))) (or (not (= x55 x9)) x85)))) (or (and (and (and (and (or x21 x111) (and (and (or x6 x6) (and (or x107 x24) (or x144 x95))) (or x97 x40))) (and (and (or x48 (not (= x122 x137))) (and (and (or (not (= x122 x88)) x107) (and (or (not (= x41 x122)) x50) (or x140 (not (= x18 x122))))) (or (not (= x35 x122)) x26))) (and (or x60 (not (= x4 x122))) (and (or (not (= x122 x31)) x15) (and (or (not (= x122 x25)) x144) (and (or (not (= x77 x122)) x153) (or (not (= x65 x122)) x84))))))) (and (and (or (not (= x61 x122)) x152) (and (and (or (not (= x136 x122)) x138) (or (not (= x122 x66)) x19)) (or x97 (not (= x122 x14))))) (or (not (= x29 x122)) x108))) (and (or (not (= x64 x122)) x118) (and (and (or x111 (not (= x122 x91))) (and (or x126 (not (= x80 x122))) (or (not (= x27 x122)) x67))) (or (not (= x55 x122)) x85)))) (or (and (and (and (or (not (= x55 x43)) x85) (and (or x111 (not (= x91 x43))) (and (or x67 (not (= x43 x27))) (or (not (= x43 x80)) x126)))) (or (not (= x64 x43)) x118)) (and (and (and (or (not (= x72 x43)) x21) (and (and (and (or x95 (not (= x53 x43))) (or x24 (not (= x128 x43)))) (or x6 (not (= x43 x79)))) (or x40 (not (= x43 x151))))) (and (and (or x60 (not (= x4 x43))) (and (and (or (not (= x25 x43)) x144) (and (or x153 (not (= x77 x43))) (or x84 (not (= x65 x43))))) (or (not (= x43 x31)) x15))) (and (and (and (or x107 x24) (and (or x50 x153) (or x140 x140))) (or x19 x26)) (or x48 x67)))) (and (and (and (and (or x19 (not (= x66 x43))) (or x138 (not (= x136 x43)))) (or (not (= x14 x43)) x97)) (or (not (= x61 x43)) x152)) (or (not (= x43 x29)) x108)))) (and (and (and (and (and (and (or x6 (not (= x104 x79))) (and (or (not (= x128 x104)) x24) (or x95 (not (= x53 x104))))) (or (not (= x151 x104)) x40)) (or x21 (not (= x104 x72)))) (and (and (or (not (= x104 x137)) x48) (and (and (and (or x140 (not (= x18 x104))) (or x50 (not (= x41 x104)))) (or x107 (not (= x104 x88)))) (or x26 (not (= x104 x35))))) (and (and (or x138 x15) (and (and (or x153 x50) (or x84 x84)) (or x95 x144))) (or x60 x126)))) (and (or (not (= x29 x104)) x108) (and (and (and (or x138 (not (= x104 x136))) (or x19 (not (= x104 x66)))) (or (not (= x104 x14)) x97)) (or (not (= x104 x61)) x152)))) (and (or x118 (not (= x104 x64))) (and (or (not (= x55 x104)) x85) (and (or (not (= x104 x91)) x111) (and (or x126 (not (= x104 x80))) (or x67 (not (= x27 x104))))))))))) (and (and (and (and (and (and (or (not (= x66 x141)) x19) (or x138 (not (= x136 x141)))) (or (not (= x141 x14)) x97)) (or x152 (not (= x141 x61)))) (or x108 (not (= x141 x29)))) (and (and (and (or x40 (not (= x151 x141))) (and (or (not (= x141 x79)) x6) (and (or x95 (not (= x53 x141))) (or x24 (not (= x128 x141)))))) (or x21 (not (= x141 x72)))) (and (and (or x60 (not (= x141 x4))) (and (or (not (= x31 x141)) x15) (and (and (or (not (= x77 x141)) x153) (or (not (= x141 x65)) x84)) (or (not (= x25 x141)) x144)))) (and (or (not (= x137 x141)) x48) (and (or x26 (not (= x35 x141))) (and (or x107 (not (= x141 x88))) (and (or x140 (not (= x141 x18))) (or x50 (not (= x141 x41)))))))))) (and (or x118 x118) (and (or x85 x108) (and (or x111 x21) (and (or x60 x126) (or x67 x48))))))))))
(assert (let ((x65 (x75 x9 x9)) (x128 (x75 x141 x141)) (x153 (x75 x122 x122)) (x77 (x75 x104 x104)) (x140 (x75 x43 x43))) (or (and (not (= x141 x128)) (and (not (= x65 x141)) (and (and (not (= x140 x141)) (not (= x141 x77))) (not (= x141 x153))))) (or (or (and (not (= x122 x128)) (and (and (and (not (= x122 x140)) (not (= x77 x122))) (not (= x122 x153))) (not (= x122 x65)))) (or (and (not (= x128 x104)) (and (and (not (= x153 x104)) (and (not (= x77 x104)) (not (= x104 x140)))) (not (= x65 x104)))) (and (and (and (not (= x43 x153)) (and (not (= x43 x140)) (not (= x77 x43)))) (not (= x65 x43))) (not (= x43 x128))))) (and (not (= x9 x128)) (and (not (= x65 x9)) (and (not (= x9 x153)) (and (not (= x140 x9)) (not (= x9 x77))))))))))
(assert (let ((x136 (x75 x122 x104)) (x67 (x75 x9 x122)) (x25 (x75 x104 x122)) (x27 (x75 x9 x104)) (x4 (x75 x9 x141)) (x128 (x75 x43 x141)) (x66 (x75 x104 x141)) (x31 (x75 x122 x122)) (x91 (x75 x141 x43)) (x19 (x75 x122 x43)) (x65 (x75 x43 x9)) (x14 (x75 x122 x9)) (x80 (x75 x9 x9)) (x72 (x75 x141 x104)) (x61 (x75 x9 x43)) (x29 (x75 x141 x9)) (x151 (x75 x122 x141)) (x140 (x75 x43 x43)) (x24 (x75 x104 x43)) (x79 (x75 x104 x9)) (x55 (x75 x141 x122)) (x153 (x75 x43 x122)) (x53 (x75 x104 x104)) (x77 (x75 x43 x104)) (x64 (x75 x141 x141))) (and (and (and (and (and (and (and (and (or (or (or (= x140 x122) (or (= x140 x104) (= x140 x43))) (= x9 x140)) (= x140 x141)) (or (= x77 x141) (or (= x9 x77) (or (= x77 x122) (or (= x77 x43) (= x104 x77)))))) (or (or (or (= x153 x122) (or (= x153 x104) (= x43 x153))) (= x9 x153)) (= x141 x153))) (or (or (or (= x122 x65) (or (= x65 x43) (= x65 x104))) (= x65 x9)) (= x65 x141))) (or (= x128 x141) (or (or (= x122 x128) (or (= x104 x128) (= x43 x128))) (= x128 x9)))) (and (or (= x66 x141) (or (= x9 x66) (or (or (= x66 x104) (= x66 x43)) (= x122 x66)))) (and (and (or (or (= x9 x25) (or (= x122 x25) (or (= x25 x104) (= x43 x25)))) (= x141 x25)) (and (or (= x141 x53) (or (= x9 x53) (or (= x122 x53) (or (= x53 x43) (= x53 x104))))) (or (= x24 x141) (or (= x24 x9) (or (= x24 x122) (or (= x24 x43) (= x104 x24))))))) (or (or (= x9 x79) (or (= x122 x79) (or (= x104 x79) (= x43 x79)))) (= x79 x141))))) (and (or (or (or (= x122 x151) (or (= x43 x151) (= x151 x104))) (= x151 x9)) (= x141 x151)) (and (or (= x14 x141) (or (= x9 x14) (or (= x14 x122) (or (= x104 x14) (= x43 x14))))) (and (or (or (= x9 x31) (or (or (= x31 x104) (= x43 x31)) (= x31 x122))) (= x31 x141)) (and (or (or (or (or (= x136 x104) (= x136 x43)) (= x122 x136)) (= x136 x9)) (= x141 x136)) (or (= x141 x19) (or (or (= x19 x122) (or (= x104 x19) (= x19 x43))) (= x9 x19)))))))) (and (and (and (and (or (or (= x9 x27) (or (= x122 x27) (or (= x27 x43) (= x104 x27)))) (= x27 x141)) (or (or (= x9 x61) (or (= x61 x122) (or (= x61 x43) (= x61 x104)))) (= x141 x61))) (or (= x67 x141) (or (= x67 x9) (or (or (= x67 x104) (= x43 x67)) (= x122 x67))))) (or (= x80 x141) (or (or (or (= x80 x104) (= x80 x43)) (= x122 x80)) (= x80 x9)))) (or (= x4 x141) (or (or (= x122 x4) (or (= x4 x43) (= x104 x4))) (= x9 x4))))) (and (and (and (or (or (or (= x122 x55) (or (= x104 x55) (= x43 x55))) (= x9 x55)) (= x141 x55)) (and (or (or (= x9 x91) (or (= x91 x122) (or (= x91 x43) (= x91 x104)))) (= x141 x91)) (or (or (= x9 x72) (or (or (= x72 x43) (= x104 x72)) (= x122 x72))) (= x141 x72)))) (or (= x29 x141) (or (= x9 x29) (or (= x29 x122) (or (= x104 x29) (= x43 x29)))))) (or (= x64 x141) (or (or (or (= x104 x64) (= x64 x43)) (= x64 x122)) (= x9 x64)))))))
(assert (and (and (and (= x104 (x75 x141 x43)) (= (x75 x141 x141) x43)) (= (x75 x104 x104) x122)) (= x9 (x75 x122 x141))))
(assert (or (or (or (and (and (and (not (= x122 (x75 x122 (x75 x122 x122)))) (and (not (= x122 (x75 x43 (x75 x122 x43)))) (not (= x122 (x75 x104 (x75 x122 x104)))))) (not (= (x75 x9 (x75 x122 x9)) x122))) (not (= x122 (x75 x141 (x75 x122 x141))))) (or (and (not (= (x75 x141 (x75 x104 x141)) x104)) (and (and (and (not (= x104 (x75 x104 (x75 x104 x104)))) (not (= x104 (x75 x43 (x75 x104 x43))))) (not (= (x75 x122 (x75 x104 x122)) x104))) (not (= x104 (x75 x9 (x75 x104 x9)))))) (and (not (= (x75 x141 (x75 x43 x141)) x43)) (and (and (and (not (= (x75 x104 (x75 x43 x104)) x43)) (not (= x43 (x75 x43 (x75 x43 x43))))) (not (= x43 (x75 x122 (x75 x43 x122))))) (not (= x43 (x75 x9 (x75 x43 x9)))))))) (and (and (not (= x9 (x75 x9 (x75 x9 x9)))) (and (and (not (= (x75 x104 (x75 x9 x104)) x9)) (not (= x9 (x75 x43 (x75 x9 x43))))) (not (= x9 (x75 x122 (x75 x9 x122)))))) (not (= x9 (x75 x141 (x75 x9 x141)))))) (and (and (and (not (= (x75 x122 (x75 x141 x122)) x141)) (and (not (= (x75 x104 (x75 x141 x104)) x141)) (not (= (x75 x43 (x75 x141 x43)) x141)))) (not (= (x75 x9 (x75 x141 x9)) x141))) (not (= (x75 x141 (x75 x141 x141)) x141)))))
(assert (let ((x4 (x75 x141 x9)) (x53 (x75 x104 x104)) (x151 (x75 x141 x122)) (x67 (x75 x122 x9)) (x27 (x75 x104 x9)) (x14 (x75 x9 x122)) (x77 (x75 x104 x43)) (x80 (x75 x9 x9)) (x55 (x75 x122 x141)) (x24 (x75 x43 x104)) (x31 (x75 x122 x122)) (x65 (x75 x9 x43)) (x128 (x75 x141 x43)) (x91 (x75 x43 x141)) (x29 (x75 x9 x141)) (x72 (x75 x104 x141)) (x136 (x75 x104 x122)) (x140 (x75 x43 x43)) (x79 (x75 x9 x104)) (x61 (x75 x43 x9)) (x66 (x75 x141 x104)) (x25 (x75 x122 x104)) (x19 (x75 x43 x122)) (x153 (x75 x122 x43)) (x64 (x75 x141 x141))) (and (and (and (and (and (not (= x14 x29)) (and (not (= x80 x14)) (and (and (and (not (= x14 x79)) (and (and (and (not (= x14 x65)) (not (= x65 x79))) (not (= x80 x65))) (not (= x29 x65)))) (not (= x80 x79))) (not (= x79 x29))))) (not (= x80 x29))) (and (and (not (= x55 x67)) (and (and (not (= x31 x67)) (and (and (not (= x67 x25)) (and (and (not (= x55 x153)) (and (not (= x153 x67)) (and (not (= x153 x25)) (not (= x153 x31))))) (not (= x31 x25)))) (not (= x25 x55)))) (not (= x31 x55)))) (and (and (and (not (= x72 x136)) (and (not (= x136 x27)) (and (and (and (not (= x136 x53)) (and (not (= x77 x72)) (and (not (= x27 x77)) (and (not (= x77 x136)) (not (= x53 x77)))))) (not (= x27 x53))) (not (= x53 x72))))) (not (= x27 x72))) (and (not (= x61 x91)) (and (not (= x91 x19)) (and (not (= x19 x61)) (and (and (and (and (and (not (= x61 x140)) (and (not (= x140 x19)) (not (= x140 x24)))) (not (= x91 x140))) (not (= x24 x19))) (not (= x24 x61))) (not (= x24 x91))))))))) (and (and (and (not (= x151 x4)) (and (and (and (and (and (not (= x128 x4)) (and (not (= x128 x151)) (not (= x128 x66)))) (not (= x128 x64))) (not (= x66 x151))) (not (= x4 x66))) (not (= x64 x66)))) (not (= x64 x151))) (not (= x64 x4)))) (and (and (and (not (= x55 x64)) (and (not (= x55 x29)) (and (and (not (= x29 x72)) (and (not (= x72 x55)) (and (not (= x91 x64)) (and (not (= x29 x91)) (and (not (= x91 x55)) (not (= x72 x91))))))) (not (= x72 x64))))) (not (= x29 x64))) (and (and (and (and (and (and (not (= x136 x151)) (and (and (and (not (= x19 x151)) (and (not (= x19 x14)) (and (not (= x19 x136)) (not (= x19 x31))))) (not (= x31 x136))) (not (= x14 x136)))) (not (= x14 x31))) (not (= x31 x151))) (not (= x151 x14))) (and (and (and (not (= x25 x66)) (and (and (and (and (and (and (not (= x24 x79)) (and (not (= x24 x25)) (not (= x24 x53)))) (not (= x24 x66))) (not (= x25 x53))) (not (= x79 x53))) (not (= x53 x66))) (not (= x25 x79)))) (not (= x66 x79))) (and (and (and (not (= x65 x153)) (and (not (= x77 x128)) (and (and (not (= x153 x77)) (and (not (= x140 x128)) (and (and (not (= x140 x77)) (not (= x153 x140))) (not (= x65 x140))))) (not (= x77 x65))))) (not (= x128 x153))) (not (= x65 x128))))) (and (not (= x4 x80)) (and (and (and (not (= x4 x27)) (and (not (= x80 x27)) (and (and (and (and (not (= x27 x61)) (not (= x61 x67))) (not (= x61 x80))) (not (= x4 x61))) (not (= x27 x67))))) (not (= x80 x67))) (not (= x67 x4)))))))))
(assert (let ((x138 (x75 x104 x104)) (x40 (x75 x9 x104)) (x62 (x75 x9 x122)) (x50 (x75 x43 x104)) (x18 (x75 x43 x43)) (x33 (x75 x141 x9)) (x35 (x75 x122 x43)) (x6 (x75 x104 x9)) (x130 (x75 x122 x9)) (x84 (x75 x141 x43)) (x109 (x75 x122 x141)) (x21 (x75 x104 x141)) (x116 (x75 x141 x122)) (x118 (x75 x122 x122)) (x82 (x75 x141 x141)) (x114 (x75 x9 x141)) (x107 (x75 x43 x122)) (x126 (x75 x104 x122)) (x44 (x75 x9 x9)) (x60 (x75 x122 x104)) (x26 (x75 x43 x9)) (x88 (x75 x104 x43)) (x97 (x75 x141 x104)) (x48 (x75 x43 x141)) (x137 (x75 x9 x43))) (let ((x128 (not (= x43 x35))) (x31 (not (= x43 x6))) (x34 (not (= x84 x141))) (x85 (not (= x104 x126))) (x95 (not (= x88 x104))) (x154 (not (= x122 x116))) (x77 (not (= x88 x43))) (x55 (not (= x43 x33))) (x14 (not (= x62 x43))) (x69 (not (= x26 x9))) (x15 (not (= x138 x104))) (x54 (not (= x122 x82))) (x86 (not (= x116 x9))) (x3 (not (= x104 x48))) (x91 (not (= x116 x43))) (x68 (not (= x130 x104))) (x142 (not (= x104 x137))) (x72 (not (= x109 x43))) (x42 (not (= x126 x122))) (x41 (not (= x104 x18))) (x103 (not (= x122 x48))) (x121 (not (= x122 x62))) (x150 (not (= x107 x9))) (x146 (not (= x138 x9))) (x133 (not (= x33 x141))) (x136 (not (= x40 x43))) (x90 (not (= x104 x44))) (x149 (not (= x35 x122))) (x127 (not (= x118 x122))) (x101 (not (= x62 x9))) (x5 (not (= x18 x141))) (x25 (not (= x126 x43))) (x140 (not (= x18 x43))) (x27 (not (= x43 x84))) (x93 (not (= x40 x122))) (x63 (not (= x122 x21))) (x30 (not (= x122 x109))) (x58 (not (= x104 x62))) (x129 (not (= x18 x122))) (x113 (not (= x138 x141))) (x36 (not (= x88 x122))) (x81 (not (= x18 x9))) (x19 (not (= x43 x26))) (x12 (not (= x26 x122))) (x49 (not (= x9 x97))) (x148 (not (= x137 x141))) (x79 (not (= x118 x43))) (x110 (not (= x9 x21))) (x145 (not (= x97 x104))) (x47 (not (= x82 x104))) (x123 (not (= x122 x50))) (x112 (not (= x114 x9))) (x20 (not (= x48 x141))) (x119 (not (= x126 x9))) (x64 (not (= x43 x82))) (x117 (not (= x114 x122))) (x7 (not (= x107 x141))) (x8 (not (= x122 x44))) (x56 (not (= x40 x104))) (x158 (not (= x122 x60))) (x17 (not (= x104 x84))) (x22 (not (= x104 x6))) (x51 (not (= x9 x60))) (x96 (not (= x141 x88))) (x94 (not (= x122 x84))) (x111 (not (= x60 x104))) (x80 (not (= x43 x97))) (x89 (not (= x26 x141))) (x61 (not (= x43 x44))) (x125 (not (= x122 x138))) (x28 (not (= x141 x21))) (x131 (not (= x9 x118))) (x45 (not (= x141 x126))) (x32 (not (= x60 x141))) (x76 (not (= x40 x141))) (x99 (not (= x141 x82))) (x73 (not (= x141 x50))) (x100 (not (= x9 x82))) (x24 (not (= x107 x43))) (x10 (not (= x9 x33))) (x74 (not (= x137 x9))) (x16 (not (= x9 x130))) (x147 (not (= x97 x141))) (x83 (not (= x33 x122))) (x92 (not (= x141 x35))) (x134 (not (= x84 x9))) (x143 (not (= x104 x109))) (x159 (not (= x6 x9))) (x156 (not (= x109 x141))) (x52 (not (= x104 x118))) (x59 (not (= x9 x50))) (x78 (not (= x104 x21))) (x67 (not (= x43 x48))) (x120 (not (= x107 x122))) (x155 (not (= x122 x97))) (x108 (not (= x107 x104))) (x105 (not (= x26 x104))) (x46 (not (= x44 x9))) (x71 (not (= x141 x116))) (x151 (not (= x130 x43))) (x106 (not (= x33 x104))) (x2 (not (= x122 x130))) (x152 (not (= x35 x104))) (x157 (not (= x122 x137))) (x70 (not (= x62 x141))) (x102 (not (= x48 x9))) (x66 (not (= x43 x137))) (x29 (not (= x43 x114))) (x139 (not (= x9 x40))) (x87 (not (= x141 x118))) (x135 (not (= x104 x116))) (x37 (not (= x6 x141))) (x4 (not (= x43 x21))) (x144 (not (= x104 x50))) (x1 (not (= x6 x122))) (x153 (not (= x43 x50))) (x57 (not (= x109 x9))) (x39 (not (= x104 x114))) (x53 (not (= x43 x60))) (x65 (not (= x43 x138))) (x38 (not (= x141 x44))) (x132 (not (= x114 x141))) (x124 (not (= x9 x35))) (x23 (not (= x130 x141))) (x13 (not (= x9 x88)))) (or (and (and (and (or x133 x132) (and (or x71 x156) (and (or x34 x20) (or x28 x147)))) (or x99 x99)) (and (and (and (and (or x23 x70) (and (and (or x92 x7) (or x32 x45)) (or x87 x87))) (or x71 x156)) (and (and (or x34 x20) (and (and (and (or x5 x5) (or x73 x96)) (or x92 x7)) (or x148 x89))) (and (or x28 x147) (and (or x37 x76) (and (and (or x96 x73) (or x113 x113)) (or x45 x32)))))) (and (or x133 x132) (and (or x38 x38) (and (and (or x37 x76) (or x89 x148)) (or x70 x23)))))) (or (or (or (and (and (and (or x29 x55) (and (and (or x14 x151) (and (or x136 x31) (or x19 x66))) (or x61 x61))) (and (and (and (or x67 x27) (and (and (and (or x140 x140) (or x77 x153)) (or x128 x24)) (or x66 x19))) (and (and (and (or x53 x25) (and (or x65 x65) (or x153 x77))) (or x31 x136)) (or x80 x4))) (and (and (or x14 x151) (and (and (or x53 x25) (or x128 x24)) (or x79 x79))) (or x72 x91)))) (and (or x64 x64) (and (and (or x72 x91) (and (or x27 x67) (or x80 x4))) (or x29 x55)))) (and (and (and (and (and (and (or x142 x105) (and (and (or x41 x41) (or x95 x144)) (or x108 x152))) (or x3 x17)) (and (and (and (and (or x15 x15) (or x144 x95)) (or x111 x85)) (or x22 x56)) (or x145 x78))) (and (or x135 x143) (and (and (or x52 x52) (and (or x152 x108) (or x111 x85))) (or x58 x68)))) (and (or x39 x106) (and (and (or x58 x68) (and (or x22 x56) (or x142 x105))) (or x90 x90)))) (and (or x47 x47) (and (and (or x135 x143) (and (or x145 x78) (or x17 x3))) (or x39 x106))))) (and (and (and (or x83 x117) (and (or x30 x154) (and (or x103 x94) (or x155 x63)))) (or x54 x54)) (and (and (and (or x30 x154) (and (and (and (or x42 x158) (or x149 x120)) (or x127 x127)) (or x2 x121))) (and (and (or x94 x103) (and (and (or x120 x149) (and (or x36 x123) (or x129 x129))) (or x12 x157))) (and (or x63 x155) (and (or x1 x93) (and (and (or x125 x125) (or x36 x123)) (or x42 x158)))))) (and (or x83 x117) (and (and (and (or x12 x157) (or x1 x93)) (or x121 x2)) (or x8 x8)))))) (and (and (and (or x10 x112) (and (or x46 x46) (and (or x16 x101) (and (or x159 x139) (or x69 x74))))) (and (and (and (and (or x139 x159) (and (and (or x13 x59) (or x146 x146)) (or x119 x51))) (or x110 x49)) (and (and (or x74 x69) (and (and (or x59 x13) (or x81 x81)) (or x124 x150))) (or x134 x102))) (and (or x86 x57) (and (or x101 x16) (and (or x131 x131) (and (or x150 x124) (or x51 x119))))))) (and (and (and (or x57 x86) (and (or x110 x49) (or x102 x134))) (or x112 x10)) (or x100 x100))))))))
(assert (let ((x72 (x75 x104 x141)) (x41 (x75 x141 x104)) (x42 (x75 x141 x9)) (x102 (x75 x141 x141)) (x128 (x75 x43 x9)) (x24 (x75 x43 x141)) (x21 (x75 x122 x122)) (x79 (x75 x122 x43)) (x153 (x75 x43 x104)) (x4 (x75 x104 x122)) (x77 (x75 x43 x43)) (x91 (x75 x104 x9)) (x65 (x75 x43 x122)) (x66 (x75 x9 x43)) (x36 (x75 x9 x9)) (x123 (x75 x9 x141)) (x118 (x75 x9 x122)) (x52 (x75 x141 x122)) (x152 (x75 x122 x141)) (x25 (x75 x104 x43)) (x19 (x75 x141 x43)) (x18 (x75 x9 x104)) (x80 (x75 x104 x104)) (x97 (x75 x122 x9)) (x64 (x75 x122 x104))) (let ((x137 (= x9 x80)) (x59 (= x141 x97)) (x68 (= x9 x21)) (x84 (= x141 x153)) (x61 (= x153 x43)) (x34 (= x19 x141)) (x113 (= x72 x122)) (x126 (= x43 x4)) (x130 (= x79 x122)) (x145 (= x18 x43)) (x37 (= x72 x9)) (x10 (= x104 x102)) (x139 (= x43 x123)) (x92 (= x152 x122)) (x82 (= x66 x104)) (x58 (= x9 x4)) (x154 (= x9 x97)) (x148 (= x9 x52)) (x146 (= x141 x36)) (x7 (= x122 x123)) (x158 (= x104 x36)) (x85 (= x104 x21)) (x13 (= x141 x91)) (x70 (= x9 x152)) (x111 (= x4 x104)) (x120 (= x97 x104)) (x134 (= x104 x42)) (x110 (= x104 x72)) (x1 (= x91 x122)) (x29 (= x80 x104)) (x135 (= x128 x43)) (x69 (= x152 x43)) (x107 (= x122 x80)) (x63 (= x91 x9)) (x94 (= x18 x9)) (x76 (= x24 x9)) (x90 (= x64 x141)) (x78 (= x43 x118)) (x15 (= x65 x43)) (x46 (= x104 x52)) (x106 (= x97 x43)) (x57 (= x123 x104)) (x140 (= x43 x77)) (x16 (= x41 x104)) (x132 (= x123 x141)) (x49 (= x24 x104)) (x159 (= x43 x102)) (x144 (= x43 x79)) (x56 (= x9 x64)) (x20 (= x41 x141)) (x33 (= x4 x141)) (x86 (= x104 x152)) (x109 (= x122 x65)) (x17 (= x21 x141)) (x12 (= x122 x118)) (x2 (= x36 x122)) (x30 (= x9 x36)) (x151 (= x25 x43)) (x155 (= x9 x128)) (x121 (= x97 x122)) (x27 (= x80 x43)) (x51 (= x52 x43)) (x116 (= x4 x122)) (x101 (= x19 x104)) (x138 (= x64 x43)) (x88 (= x153 x122)) (x39 (= x43 x36)) (x157 (= x18 x122)) (x136 (= x77 x122)) (x156 (= x72 x141)) (x114 (= x65 x141)) (x38 (= x9 x102)) (x31 (= x9 x77)) (x93 (= x128 x122)) (x124 (= x43 x19)) (x8 (= x66 x9)) (x100 (= x122 x41)) (x119 (= x42 x43)) (x55 (= x104 x153)) (x143 (= x43 x91)) (x47 (= x18 x104)) (x103 (= x9 x118)) (x50 (= x122 x25)) (x127 (= x122 x66)) (x87 (= x41 x9)) (x54 (= x118 x141)) (x14 (= x141 x77)) (x150 (= x43 x41)) (x83 (= x141 x66)) (x96 (= x42 x122)) (x133 (= x141 x152)) (x45 (= x9 x19)) (x40 (= x104 x64)) (x73 (= x122 x24)) (x6 (= x79 x104)) (x60 (= x21 x43)) (x71 (= x24 x141)) (x108 (= x65 x104)) (x105 (= x79 x9)) (x53 (= x104 x77)) (x74 (= x72 x43)) (x22 (= x65 x9)) (x48 (= x141 x25)) (x131 (= x43 x24)) (x142 (= x21 x122)) (x117 (= x141 x18)) (x129 (= x104 x118)) (x125 (= x128 x104)) (x89 (= x42 x9)) (x99 (= x141 x102)) (x28 (= x141 x42)) (x32 (= x102 x122)) (x35 (= x9 x25)) (x112 (= x122 x19)) (x5 (= x122 x52)) (x23 (= x9 x123)) (x67 (= x104 x25)) (x62 (= x64 x122)) (x95 (= x80 x141)) (x147 (= x141 x52)) (x44 (= x79 x141)) (x3 (= x43 x66)) (x81 (= x128 x141)) (x149 (= x91 x104)) (x26 (= x153 x9))) (and (and (and (and (and (and (and (or (or (or x105 (or x35 x31)) x8) x45) (or (or (or x22 (or x26 x31)) x155) x76)) (and (and (or (or x93 (or (or x88 x136) x109)) x73) (or (or x127 (or (or x136 x50) x130)) x112)) (and (and (or x49 (or x125 (or (or x53 x55) x108))) (or (or (or (or x53 x67) x6) x82) x101)) (and (or (or x3 (or x144 (or x151 x140))) x124) (or (or x135 (or (or x61 x140) x15)) x131))))) (and (or (or (or x114 (or x14 x84)) x81) x71) (or (or x83 (or (or x48 x14) x44)) x34))) (and (and (or (or x13 (or x33 (or x95 x48))) x156) (or (or (or (or x84 x95) x90) x117) x20)) (and (and (and (or (or x157 (or (or x107 x88) x62)) x100) (or (or (or (or x107 x50) x116) x1) x113)) (and (and (or (or (or x138 (or x61 x27)) x145) x150) (or (or (or x126 (or x151 x27)) x143) x74)) (and (or x110 (or x149 (or x111 (or x29 x67)))) (or x16 (or (or x40 (or x29 x55)) x47))))) (and (or x37 (or x63 (or (or x35 x137) x58))) (or x87 (or (or (or x137 x26) x56) x94)))))) (and (and (or (or (or x17 (or x33 x114)) x54) x147) (or (or x59 (or (or x90 x44) x17)) x133)) (and (and (and (and (or (or x129 (or (or x108 x111) x85)) x46) (or (or (or x85 (or x6 x40)) x120) x86)) (and (or x51 (or (or (or x15 x126) x60) x78)) (or (or (or (or x138 x144) x60) x106) x69))) (and (or x92 (or (or (or x62 x130) x142) x121)) (or (or x12 (or (or x109 x116) x142)) x5))) (and (or (or (or (or x22 x58) x68) x103) x148) (or (or (or x68 (or x105 x56)) x154) x70))))) (and (and (or (or (or x54 (or x117 x83)) x146) x132) (or x28 (or x146 (or (or x81 x13) x59)))) (and (and (and (or x7 (or x2 (or x12 (or x157 x127)))) (or (or (or x121 (or x93 x1)) x2) x96)) (and (and (or x57 (or x158 (or (or x82 x47) x129))) (or (or x158 (or x120 (or x149 x125))) x134)) (and (or x139 (or x39 (or x78 (or x3 x145)))) (or x119 (or (or x106 (or x135 x143)) x39))))) (and (or (or (or x103 (or x94 x8)) x30) x23) (or x89 (or x30 (or x154 (or x155 x63)))))))) (and (and (or x99 (or (or (or x156 x71) x133) x132)) (or x99 (or x28 (or (or x34 x20) x147)))) (and (and (or (or (or (or x45 x87) x148) x89) x38) (or x38 (or x23 (or (or x76 x37) x70)))) (and (and (or x32 (or (or (or x113 x73) x92) x7)) (or (or (or (or x100 x112) x5) x96) x32)) (and (and (or x159 (or (or (or x131 x74) x69) x139)) (or x159 (or (or x51 (or x150 x124)) x119))) (and (or (or (or (or x110 x49) x86) x57) x10) (or (or x134 (or x46 (or x101 x16))) x10))))))))))
(assert (let ((x153 (x75 x43 x122)) (x31 (x75 x122 x122)) (x67 (x75 x9 x122)) (x136 (x75 x122 x104)) (x91 (x75 x141 x43)) (x25 (x75 x104 x122)) (x55 (x75 x141 x122)) (x24 (x75 x104 x43)) (x29 (x75 x141 x9)) (x4 (x75 x9 x141)) (x151 (x75 x122 x141)) (x65 (x75 x43 x9)) (x79 (x75 x104 x9)) (x53 (x75 x104 x104)) (x14 (x75 x122 x9)) (x72 (x75 x141 x104)) (x66 (x75 x104 x141)) (x77 (x75 x43 x104)) (x80 (x75 x9 x9)) (x140 (x75 x43 x43)) (x27 (x75 x9 x104)) (x128 (x75 x43 x141)) (x61 (x75 x9 x43)) (x64 (x75 x141 x141)) (x19 (x75 x122 x43))) (or (and (not (= x141 (x75 x64 x64))) (and (not (= x9 (x75 x29 x29))) (and (and (not (= x43 (x75 x91 x91))) (not (= (x75 x72 x72) x104))) (not (= (x75 x55 x55) x122))))) (or (or (or (and (and (not (= x9 (x75 x79 x79))) (and (not (= (x75 x25 x25) x122)) (and (not (= x43 (x75 x24 x24))) (not (= (x75 x53 x53) x104))))) (not (= (x75 x66 x66) x141))) (and (and (not (= (x75 x65 x65) x9)) (and (not (= x122 (x75 x153 x153))) (and (not (= x104 (x75 x77 x77))) (not (= x43 (x75 x140 x140)))))) (not (= x141 (x75 x128 x128))))) (and (and (not (= x9 (x75 x14 x14))) (and (and (not (= x43 (x75 x19 x19))) (not (= (x75 x136 x136) x104))) (not (= (x75 x31 x31) x122)))) (not (= x141 (x75 x151 x151))))) (and (and (and (not (= x122 (x75 x67 x67))) (and (not (= (x75 x61 x61) x43)) (not (= x104 (x75 x27 x27))))) (not (= x9 (x75 x80 x80)))) (not (= x141 (x75 x4 x4))))))))
(assert (and (and (not (= (x75 (x75 x9 x9) x9) x9)) (and (and (not (= x104 (x75 (x75 x104 x104) x104))) (not (= x43 (x75 (x75 x43 x43) x43)))) (not (= x122 (x75 (x75 x122 x122) x122))))) (not (= x141 (x75 (x75 x141 x141) x141)))))
(assert (let ((x140 (x75 x43 x43)) (x77 (x75 x104 x104)) (x65 (x75 x9 x9)) (x153 (x75 x122 x122)) (x128 (x75 x141 x141))) (and (or (or (or (or (= (x75 x43 x128) x43) (= x104 (x75 x104 x128))) (= x122 (x75 x122 x128))) (= x9 (x75 x9 x128))) (= (x75 x141 x128) x141)) (and (or (or (= x9 (x75 x9 x65)) (or (or (= (x75 x104 x65) x104) (= x43 (x75 x43 x65))) (= (x75 x122 x65) x122))) (= (x75 x141 x65) x141)) (and (and (or (or (= x9 (x75 x9 x140)) (or (= x122 (x75 x122 x140)) (or (= (x75 x43 x140) x43) (= x104 (x75 x104 x140))))) (= (x75 x141 x140) x141)) (or (= x141 (x75 x141 x77)) (or (= (x75 x9 x77) x9) (or (= x122 (x75 x122 x77)) (or (= x43 (x75 x43 x77)) (= (x75 x104 x77) x104)))))) (or (or (= (x75 x9 x153) x9) (or (= (x75 x122 x153) x122) (or (= x43 (x75 x43 x153)) (= (x75 x104 x153) x104)))) (= (x75 x141 x153) x141)))))))
(assert (and (not (= x9 x141)) (and (and (and (and (and (and (not (= x141 x43)) (and (not (= x9 x43)) (and (not (= x43 x122)) (not (= x43 x104))))) (not (= x104 x122))) (not (= x104 x9))) (not (= x104 x141))) (not (= x122 x9))) (not (= x122 x141)))))
(assert (let ((x14 (x75 x9 x122)) (x67 (x75 x43 x141)) (x151 (x75 x122 x9)) (x66 (x75 x9 x43)) (x31 (x75 x104 x9)) (x80 (x75 x141 x104)) (x27 (x75 x141 x43)) (x25 (x75 x104 x122)) (x136 (x75 x9 x104)) (x24 (x75 x43 x122)) (x72 (x75 x122 x141)) (x64 (= x141 (x75 x141 x141))) (x61 (= x9 (x75 x9 x9))) (x77 (x75 x104 x43)) (x128 (x75 x122 x43)) (x91 (x75 x141 x122)) (x4 (x75 x104 x141)) (x55 (x75 x141 x9)) (x140 (= (x75 x43 x43) x43)) (x19 (x75 x43 x9)) (x53 (x75 x122 x104)) (x29 (x75 x9 x141)) (x79 (= x122 (x75 x122 x122))) (x153 (x75 x43 x104)) (x65 (= (x75 x104 x104) x104))) (or (or (or (or (and x61 x61) (or (or (and (= x19 x9) (= x9 x66)) (and (= x136 x9) (= x31 x9))) (and (= x9 x151) (= x14 x9)))) (and (= x9 x29) (= x9 x55))) (or (or (and (= x122 x91) (= x122 x72)) (or (and (= x151 x122) (= x122 x14)) (or (or (and (= x25 x122) (= x122 x53)) (and (= x24 x122) (= x128 x122))) (and x79 x79)))) (or (or (and (= x67 x43) (= x27 x43)) (or (and (= x43 x19) (= x43 x66)) (or (or (and x140 x140) (and (= x77 x43) (= x153 x43))) (and (= x24 x43) (= x128 x43))))) (or (and (= x104 x80) (= x4 x104)) (or (or (or (and (= x77 x104) (= x104 x153)) (and x65 x65)) (and (= x25 x104) (= x104 x53))) (and (= x136 x104) (= x104 x31))))))) (or (or (or (or (and (= x4 x141) (= x80 x141)) (and (= x67 x141) (= x141 x27))) (and (= x91 x141) (= x141 x72))) (and (= x55 x141) (= x141 x29))) (and x64 x64)))))
(assert (let ((x65 (x75 x9 x9)) (x128 (x75 x141 x141)) (x140 (x75 x43 x43)) (x77 (x75 x104 x104)) (x153 (x75 x122 x122))) (or (= (x75 x128 x128) x141) (or (or (or (= (x75 x77 x77) x104) (= x43 (x75 x140 x140))) (= (x75 x153 x153) x122)) (= (x75 x65 x65) x9)))))
(assert (or (or (or (or (= (x75 x104 (x75 x104 x104)) x104) (= (x75 x43 (x75 x43 x43)) x43)) (= x122 (x75 x122 (x75 x122 x122)))) (= x9 (x75 x9 (x75 x9 x9)))) (= (x75 x141 (x75 x141 x141)) x141)))
(assert (or (or (and (not (= (x75 x9 (x75 x9 x141)) x141)) (and (and (not (= x122 (x75 x9 (x75 x9 x122)))) (and (not (= x43 (x75 x9 (x75 x9 x43)))) (not (= x104 (x75 x9 (x75 x9 x104)))))) (not (= (x75 x9 (x75 x9 x9)) x9)))) (or (or (and (not (= (x75 x104 (x75 x104 x141)) x141)) (and (not (= x9 (x75 x104 (x75 x104 x9)))) (and (not (= x122 (x75 x104 (x75 x104 x122)))) (and (not (= x43 (x75 x104 (x75 x104 x43)))) (not (= x104 (x75 x104 (x75 x104 x104)))))))) (and (not (= (x75 x43 (x75 x43 x141)) x141)) (and (not (= x9 (x75 x43 (x75 x43 x9)))) (and (and (not (= x43 (x75 x43 (x75 x43 x43)))) (not (= (x75 x43 (x75 x43 x104)) x104))) (not (= (x75 x43 (x75 x43 x122)) x122)))))) (and (not (= x141 (x75 x122 (x75 x122 x141)))) (and (not (= (x75 x122 (x75 x122 x9)) x9)) (and (not (= x122 (x75 x122 (x75 x122 x122)))) (and (not (= x104 (x75 x122 (x75 x122 x104)))) (not (= (x75 x122 (x75 x122 x43)) x43)))))))) (and (not (= x141 (x75 x141 (x75 x141 x141)))) (and (and (and (not (= (x75 x141 (x75 x141 x104)) x104)) (not (= (x75 x141 (x75 x141 x43)) x43))) (not (= (x75 x141 (x75 x141 x122)) x122))) (not (= (x75 x141 (x75 x141 x9)) x9))))))
(assert (and (and (and (not (= x122 (x75 x122 x122))) (and (not (= (x75 x43 x43) x43)) (not (= x104 (x75 x104 x104))))) (not (= (x75 x9 x9) x9))) (not (= x141 (x75 x141 x141)))))
(assert (not (and (and (and (= (x75 x141 x122) x122) (and (= x9 (x75 x141 x104)) (and (= x104 (x75 x141 x43)) (and (and (= x43 (x75 x9 x9)) (and (and (and (and (= (x75 x122 x141) x9) (and (= (x75 x122 x9) x104) (and (and (= x141 (x75 x122 x104)) (and (= x122 (x75 x122 x43)) (and (= x141 (x75 x104 x141)) (and (and (and (and (and (and (and (= x141 (x75 x43 x122)) (and (= (x75 x43 x104) x43) (= x9 (x75 x43 x43)))) (= x122 (x75 x43 x9))) (= x104 (x75 x43 x141))) (= x43 (x75 x104 x43))) (= (x75 x104 x104) x122)) (= (x75 x104 x122) x104)) (= x9 (x75 x104 x9)))))) (= x43 (x75 x122 x122))))) (= x141 (x75 x9 x43))) (= (x75 x9 x104) x104)) (= (x75 x9 x122) x9))) (= x122 (x75 x9 x141)))))) (= x141 (x75 x141 x9))) (= x43 (x75 x141 x141)))))
(check-sat)
(exit)
